# Objective value = 1.9568449252935138e+03
x[0] 0
x[1] 1
x[2] 1
x[3] 1
x[4] 1
x[5] 1
x[6] 1
x[7] 1
x[8] 0
x[9] 1
x[10] 0
x[11] 0
x[12] 1
x[13] 0
x[14] 1
x[15] 0
x[16] 0
x[17] 1
x[18] 1
x[19] 1
x[20] 1
x[21] 0
x[22] 0
x[23] 0
x[24] 0
x[25] 0
x[26] 0
x[27] 1
x[28] 1
x[29] 0
x[30] 0
x[31] 1
x[32] 0
x[33] 1
x[34] 1
x[35] 1
x[36] 0
x[37] 1
x[38] 0
x[39] 1
x[40] 1
x[41] 0
x[42] 0
x[43] 1
x[44] 1
x[45] 1
x[46] 1
x[47] 1
x[48] 0
x[49] 0
x[50] 1
x[51] 1
x[52] 1
x[53] 0
x[54] 1
x[55] 0
x[56] 0
x[57] 0
x[58] 1
x[59] 1
x[60] 0
x[61] 0
x[62] 1
x[63] 1
x[64] 0
x[65] 1
x[66] 0
x[67] 1
x[68] 1
x[69] 0
x[70] 1
x[71] 0
x[72] 0
x[73] 1
x[74] 0
x[75] 1
x[76] 1
x[77] 0
x[78] 1
x[79] 1
x[80] 0
x[81] 1
x[82] 1
x[83] 1
x[84] 1
x[85] 0
x[86] 1
x[87] 0
x[88] 1
x[89] 1
x[90] 0
x[91] 0
x[92] 0
x[93] 1
x[94] 1
x[95] 1
x[96] 1
x[97] 1
x[98] 1
x[99] 1
x[100] 0
x[101] 1
x[102] 1
x[103] 1
x[104] 0
x[105] 1
x[106] 0
x[107] 1
x[108] 0
x[109] 1
x[110] 1
x[111] 0
x[112] 1
x[113] 0
x[114] 1
x[115] 0
x[116] 0
x[117] 1
x[118] 1
x[119] 0
x[120] 0
x[121] 0
x[122] 1
x[123] 0
x[124] 1
x[125] 1
x[126] 0
x[127] 1
x[128] 0
x[129] 0
x[130] 1
x[131] 0
x[132] 0
x[133] 1
x[134] 1
x[135] 1
x[136] 1
x[137] 1
x[138] 0
x[139] 0
x[140] 0
x[141] 1
x[142] 1
x[143] 1
x[144] 1
x[145] 0
x[146] 0
x[147] 0
x[148] 1
x[149] 1
x[150] 0
x[151] 0
x[152] 1
x[153] 1
x[154] 1
x[155] 0
x[156] 1
x[157] 1
x[158] 0
x[159] 1
x[160] 1
x[161] 1
x[162] 1
x[163] 1
x[164] 1
x[165] 1
x[166] 1
x[167] 1
x[168] 1
x[169] 1
x[170] 1
x[171] 0
x[172] 0
x[173] 0
x[174] 0
x[175] 0
x[176] 1
x[177] 0
x[178] 0
x[179] 0
x[180] 1
x[181] 1
x[182] 1
x[183] 1
x[184] 0
x[185] 0
x[186] 0
x[187] 0
x[188] 1
x[189] 0
x[190] 0
x[191] 0
x[192] 1
x[193] 1
x[194] 0
x[195] 0
x[196] 0
x[197] 0
x[198] 1
x[199] 0
x[200] 1
x[201] 1
x[202] 1
x[203] 0
x[204] 1
x[205] 0
x[206] 0
x[207] 0
x[208] 0
x[209] 1
x[210] 0
x[211] 0
x[212] 0
x[213] 0
x[214] 1
x[215] 0
x[216] 1
x[217] 0
x[218] 0
x[219] 0
x[220] 1
x[221] 0
x[222] 0
x[223] 0
x[224] 0
x[225] 0
x[226] 1
x[227] 1
x[228] 0
x[229] 1
x[230] 0
x[231] 0
x[232] 1
x[233] 0
x[234] 1
x[235] 1
x[236] 1
x[237] 1
x[238] 1
x[239] 0
x[240] 0
x[241] 1
x[242] 0
x[243] 0
x[244] 0
x[245] 1
x[246] 0
x[247] 0
x[248] 1
x[249] 1
x[250] 0
x[251] 0
x[252] 0
x[253] 1
x[254] 0
x[255] 1
x[256] 0
x[257] 1
x[258] 1
x[259] 0
x[260] 1
x[261] 0
x[262] 1
x[263] 1
x[264] 0
x[265] 0
x[266] 0
x[267] 0
x[268] 1
x[269] 0
x[270] 0
x[271] 1
x[272] 1
x[273] 1
x[274] 1
x[275] 0
x[276] 1
x[277] 0
x[278] 1
x[279] 0
x[280] 1
x[281] 1
x[282] 0
x[283] 0
x[284] 1
x[285] 0
x[286] 1
x[287] 0
x[288] 1
x[289] 1
x[290] 0
x[291] 1
x[292] 1
x[293] 1
x[294] 0
x[295] 1
x[296] 0
x[297] 1
x[298] 0
x[299] 1
x[300] 1
x[301] 1
x[302] 1
x[303] 0
x[304] 0
x[305] 1
x[306] 0
x[307] 1
x[308] 0
x[309] 0
x[310] 1
x[311] 0
x[312] 1
x[313] 1
x[314] 0
x[315] 1
x[316] 0
x[317] 0
x[318] 0
x[319] 1
x[320] 1
x[321] 0
x[322] 0
x[323] 0
x[324] 0
x[325] 1
x[326] 0
x[327] 0
x[328] 1
x[329] 1
x[330] 1
x[331] 0
x[332] 0
x[333] 1
x[334] 1
x[335] 1
x[336] 1
x[337] 1
x[338] 1
x[339] 0
x[340] 0
x[341] 1
x[342] 1
x[343] 1
x[344] 1
x[345] 0
x[346] 1
x[347] 1
x[348] 1
x[349] 1
x[350] 0
x[351] 0
x[352] 0
x[353] 0
x[354] 1
x[355] 1
x[356] 1
x[357] 1
x[358] 1
x[359] 1
x[360] 0
x[361] 0
x[362] 0
x[363] 1
x[364] 1
x[365] 0
x[366] 1
x[367] 0
x[368] 1
x[369] 0
x[370] 1
x[371] 1
x[372] 0
x[373] 0
x[374] 1
x[375] 1
x[376] 1
x[377] 0
x[378] 0
x[379] 1
x[380] 0
x[381] 1
x[382] 1
x[383] 1
x[384] 1
x[385] 0
x[386] 1
x[387] 0
x[388] 1
x[389] 0
x[390] 1
x[391] 0
x[392] 1
x[393] 0
x[394] 1
x[395] 1
x[396] 1
x[397] 1
x[398] 0
x[399] 0
x[400] 1
x[401] 1
x[402] 1
x[403] 0
x[404] 0
x[405] 0
x[406] 0
x[407] 1
x[408] 1
x[409] 0
x[410] 0
x[411] 1
x[412] 0
x[413] 0
x[414] 1
x[415] 1
x[416] 0
x[417] 1
x[418] 0
x[419] 0
x[420] 0
x[421] 0
x[422] 1
x[423] 1
x[424] 1
x[425] 0
x[426] 0
x[427] 1
x[428] 1
x[429] 0
x[430] 0
x[431] 1
x[432] 1
x[433] 1
x[434] 1
x[435] 1
x[436] 0
x[437] 0
x[438] 0
x[439] 0
x[440] 1
x[441] 1
x[442] 0
x[443] 1
x[444] 1
x[445] 0
x[446] 0
x[447] 1
x[448] 1
x[449] 1
x[450] 1
x[451] 0
x[452] 1
x[453] 1
x[454] 1
x[455] 1
x[456] 1
x[457] 0
x[458] 0
x[459] 0
x[460] 0
x[461] 1
x[462] 1
x[463] 0
x[464] 1
x[465] 0
x[466] 1
x[467] 0
x[468] 0
x[469] 1
x[470] 1
x[471] 1
x[472] 1
x[473] 1
x[474] 0
x[475] 0
x[476] 1
x[477] 1
x[478] 1
x[479] 1
x[480] 1
x[481] 1
x[482] 0
x[483] 0
x[484] 0
x[485] 1
x[486] 1
x[487] 1
x[488] 1
x[489] 1
x[490] 0
x[491] 1
x[492] 1
x[493] 1
x[494] 0
x[495] 0
x[496] 1
x[497] 0
x[498] 0
x[499] 1
x[500] 0
x[501] 1
x[502] 0
x[503] 1
x[504] 0
x[505] 1
x[506] 0
x[507] 0
x[508] 1
x[509] 1
x[510] 0
x[511] 0
x[512] 0
x[513] 1
x[514] 1
x[515] 1
x[516] 0
x[517] 0
x[518] 0
x[519] 0
x[520] 1
x[521] 1
x[522] 0
x[523] 1
x[524] 1
x[525] 1
x[526] 0
x[527] 0
x[528] 1
x[529] 0
x[530] 0
x[531] 0
x[532] 0
x[533] 0
x[534] 0
x[535] 1
x[536] 1
x[537] 1
x[538] 1
x[539] 0
x[540] 1
x[541] 1
x[542] 1
x[543] 1
x[544] 0
x[545] 0
x[546] 1
x[547] 1
x[548] 0
x[549] 0
x[550] 1
x[551] 1
x[552] 1
x[553] 1
x[554] 0
x[555] 1
x[556] 1
x[557] 0
x[558] 1
x[559] 1
x[560] 0
x[561] 0
x[562] 0
x[563] 1
x[564] 0
x[565] 0
x[566] 1
x[567] 1
x[568] 1
x[569] 0
x[570] 0
x[571] 1
x[572] 1
x[573] 0
x[574] 1
x[575] 1
x[576] 0
x[577] 0
x[578] 0
x[579] 0
x[580] 1
x[581] 0
x[582] 0
x[583] 1
x[584] 1
x[585] 1
x[586] 1
x[587] 1
x[588] 0
x[589] 1
x[590] 0
x[591] 0
x[592] 1
x[593] 1
x[594] 1
x[595] 1
x[596] 1
x[597] 0
x[598] 1
x[599] 0
x[600] 0
x[601] 1
x[602] 0
x[603] 0
x[604] 1
x[605] 1
x[606] 0
x[607] 1
x[608] 1
x[609] 0
x[610] 1
x[611] 1
x[612] 0
x[613] 0
x[614] 1
x[615] 0
x[616] 0
x[617] 1
x[618] 0
x[619] 0
x[620] 1
x[621] 0
x[622] 1
x[623] 0
x[624] 1
x[625] 0
x[626] 0
x[627] 0
x[628] 1
x[629] 0
x[630] 0
x[631] 0
x[632] 1
x[633] 0
x[634] 1
x[635] 0
x[636] 1
x[637] 0
x[638] 1
x[639] 1
x[640] 1
x[641] 1
x[642] 1
x[643] 1
x[644] 0
x[645] 0
x[646] 1
x[647] 1
x[648] 1
x[649] 0
x[650] 1
x[651] 0
x[652] 0
x[653] 1
x[654] 1
x[655] 0
x[656] 1
x[657] 0
x[658] 1
x[659] 1
x[660] 0
x[661] 0
x[662] 1
x[663] 0
x[664] 1
x[665] 1
x[666] 0
x[667] 0
x[668] 1
x[669] 1
x[670] 1
x[671] 0
x[672] 1
x[673] 1
x[674] 0
x[675] 1
x[676] 0
x[677] 0
x[678] 1
x[679] 1
x[680] 0
x[681] 0
x[682] 0
x[683] 1
x[684] 1
x[685] 1
x[686] 1
x[687] 1
x[688] 0
x[689] 0
x[690] 0
x[691] 0
x[692] 1
x[693] 0
x[694] 1
x[695] 1
x[696] 0
x[697] 1
x[698] 1
x[699] 1
x[700] 1
x[701] 1
x[702] 1
x[703] 1
x[704] 0
x[705] 0
x[706] 1
x[707] 0
x[708] 0
x[709] 1
x[710] 1
x[711] 1
x[712] 1
x[713] 1
x[714] 1
x[715] 0
x[716] 0
x[717] 0
x[718] 1
x[719] 1
x[720] 1
x[721] 1
x[722] 0
x[723] 0
x[724] 0
x[725] 0
x[726] 0
x[727] 1
x[728] 1
x[729] 1
x[730] 1
x[731] 1
x[732] 0
x[733] 1
x[734] 0
x[735] 1
x[736] 0
x[737] 0
x[738] 1
x[739] 1
x[740] 1
x[741] 0
x[742] 1
x[743] 0
x[744] 1
x[745] 0
x[746] 0
x[747] 1
x[748] 0
x[749] 0
x[750] 1
x[751] 1
x[752] 0
x[753] 0
x[754] 0
x[755] 1
x[756] 0
x[757] 0
x[758] 0
x[759] 1
x[760] 1
x[761] 1
x[762] 0
x[763] 1
x[764] 1
x[765] 1
x[766] 1
x[767] 0
x[768] 1
x[769] 0
x[770] 1
x[771] 0
x[772] 1
x[773] 1
x[774] 1
x[775] 1
x[776] 0
x[777] 0
x[778] 1
x[779] 1
x[780] 0
x[781] 0
x[782] 0
x[783] 0
x[784] 1
x[785] 0
x[786] 0
x[787] 0
x[788] 1
x[789] 0
x[790] 0
x[791] 1
x[792] 1
x[793] 1
x[794] 1
x[795] 0
x[796] 0
x[797] 1
x[798] 1
x[799] 0
x[800] 0
x[801] 0
x[802] 1
x[803] 1
x[804] 1
x[805] 0
x[806] 1
x[807] 0
x[808] 0
x[809] 1
x[810] 0
x[811] 1
x[812] 1
x[813] 0
x[814] 1
x[815] 1
x[816] 0
x[817] 0
x[818] 1
x[819] 1
x[820] 1
x[821] 1
x[822] 1
x[823] 0
x[824] 0
x[825] 1
x[826] 1
x[827] 0
x[828] 1
x[829] 1
x[830] 1
x[831] 1
x[832] 0
x[833] 0
x[834] 0
x[835] 1
x[836] 0
x[837] 1
x[838] 1
x[839] 0
x[840] 1
x[841] 1
x[842] 1
x[843] 1
x[844] 1
x[845] 1
x[846] 1
x[847] 1
x[848] 0
x[849] 0
x[850] 1
x[851] 0
x[852] 1
x[853] 1
x[854] 1
x[855] 0
x[856] 0
x[857] 1
x[858] 0
x[859] 1
x[860] 1
x[861] 1
x[862] 0
x[863] 0
x[864] 0
x[865] 1
x[866] 1
x[867] 1
x[868] 1
x[869] 1
x[870] 0
x[871] 0
x[872] 1
x[873] 1
x[874] 1
x[875] 1
x[876] 1
x[877] 0
x[878] 1
x[879] 1
x[880] 0
x[881] 1
x[882] 0
x[883] 1
x[884] 1
x[885] 1
x[886] 1
x[887] 1
x[888] 1
x[889] 1
x[890] 1
x[891] 0
x[892] 1
x[893] 0
x[894] 1
x[895] 1
x[896] 1
x[897] 1
x[898] 1
x[899] 1
x[900] 0
x[901] 1
x[902] 0
x[903] 1
x[904] 0
x[905] 0
x[906] 1
x[907] 0
x[908] 0
x[909] 1
x[910] 0
x[911] 1
x[912] 0
x[913] 0
x[914] 1
x[915] 0
x[916] 0
x[917] 0
x[918] 0
x[919] 1
x[920] 1
x[921] 1
x[922] 1
x[923] 0
x[924] 1
x[925] 0
x[926] 0
x[927] 1
x[928] 0
x[929] 1
x[930] 0
x[931] 0
x[932] 0
x[933] 0
x[934] 1
x[935] 0
x[936] 1
x[937] 1
x[938] 0
x[939] 1
x[940] 1
x[941] 0
x[942] 1
x[943] 1
x[944] 1
x[945] 1
x[946] 1
x[947] 0
x[948] 1
x[949] 1
x[950] 0
x[951] 1
x[952] 1
x[953] 1
x[954] 1
x[955] 0
x[956] 0
x[957] 0
x[958] 0
x[959] 1
x[960] 0
x[961] 1
x[962] 1
x[963] 1
x[964] 1
x[965] 1
x[966] 1
x[967] 1
x[968] 1
x[969] 0
x[970] 0
x[971] 1
x[972] 1
x[973] 1
x[974] 0
x[975] 0
x[976] 1
x[977] 1
x[978] 1
x[979] 1
x[980] 0
x[981] 1
x[982] 1
x[983] 1
x[984] 0
x[985] 0
x[986] 1
x[987] 1
x[988] 0
x[989] 1
x[990] 1
x[991] 0
x[992] 1
x[993] 1
x[994] 1
x[995] 1
x[996] 0
x[997] 0
x[998] 0
x[999] 0
